p cnf 26 199
-17 -19 18 20 -16 0
-5 -2 -1 -4 -3 0
-23 -24 25 -21 -22 0
-3 -1 -4 2 5 0
11 13 -14 -15 -12 0
10 -6 9 -7 8 0
5 1 4 3 -2 0
-26 -25 23 -22 24 0
-11 14 12 -13 15 0
-19 -17 -20 -18 -16 0
7 8 9 -10 6 0
-6 -8 -10 9 7 0
24 26 -22 25 23 0
-14 -13 -12 11 15 0
11 12 -14 -15 13 0
17 -18 19 -20 -16 0
-21 -23 -24 22 -25 0
-21 24 23 -26 25 0
22 23 24 -21 25 0
15 -13 -14 12 11 0
-25 22 -23 -21 26 0
3 5 -4 -2 1 0
-23 -21 -22 -25 24 0
-7 -10 9 6 -8 0
4 -5 3 -2 1 0
16 17 -18 20 -19 0
-8 7 -10 6 9 0
25 -5 7 17 -15 0
2 -4 -3 1 -5 0
11 -15 -13 14 -12 0
-11 -14 12 -15 13 0
-9 6 10 7 8 0
-1 4 -2 3 5 0
-11 14 13 -15 -12 0
-26 -22 -21 25 -23 0
7 10 -9 -8 6 0
-16 -17 19 -18 -20 0
-22 26 21 -23 -25 0
-22 25 21 -24 23 0
-11 -12 -14 -13 15 0
-25 -21 22 24 23 0
-7 -10 -6 -8 9 0
-13 -12 11 15 14 0
19 16 -17 18 20 0
22 -24 -21 26 23 0
23 -22 25 -26 -21 0
17 18 20 19 -16 0
26 25 -21 -23 -22 0
-25 22 26 24 -21 0
-23 21 24 22 25 0
25 -23 21 22 -24 0
-17 -18 20 19 16 0
-22 -24 23 -26 21 0
18 17 -16 -20 -19 0
-3 2 5 -4 1 0
19 -5 26 6 13 0
-9 6 -10 8 -7 0
21 -25 -22 24 -23 0
-20 -19 16 17 -18 0
20 -18 -19 -17 -16 0
23 25 21 -26 -24 0
-6 -7 -9 -8 10 0
19 -16 -20 18 -17 0
-14 -11 13 -12 -15 0
-15 -11 -13 14 -12 0
-12 -15 11 14 13 0
-25 22 -23 21 24 0
2 4 3 5 1 0
-7 9 10 -6 -8 0
6 -7 9 8 10 0
26 22 -24 21 25 0
19 -18 17 -20 16 0
-17 -20 -19 16 18 0
23 26 25 -24 -21 0
-8 7 -10 6 -9 0
-22 -24 -25 -21 -26 0
-2 -3 -4 5 1 0
-3 -1 -2 5 -4 0
-9 10 -7 6 8 0
7 -8 -6 10 -9 0
-20 -19 -17 -18 16 0
-14 17 -3 6 -26 0
22 -26 24 21 25 0
2 5 1 4 -3 0
9 -8 10 6 7 0
-6 -8 -10 -7 -9 0
26 22 -23 -21 24 0
24 25 21 26 -23 0
-22 21 24 25 26 0
-9 7 -10 8 6 0
-6 -8 7 -10 -9 0
25 -24 22 26 -21 0
17 16 19 18 -20 0
-26 25 -24 -22 -23 0
25 5 9 18 14 0
-15 13 12 14 11 0
-14 12 -15 -11 -13 0
-12 15 13 11 14 0
14 -12 -11 13 15 0
24 -22 25 -21 23 0
-16 18 -17 19 20 0
10 23 20 -12 5 0
-24 22 -25 26 23 0
-24 -21 -22 23 -25 0
10 9 -7 6 -8 0
13 11 15 14 12 0
24 -26 25 21 -23 0
21 -26 -24 -25 -23 0
25 -23 21 -24 -26 0
-19 -20 -17 -16 18 0
-1 2 4 5 3 0
19 -16 -18 17 20 0
-17 -19 18 16 20 0
-6 -9 -10 -7 8 0
24 -16 -7 -14 4 0
8 -6 9 10 7 0
-4 5 3 2 -1 0
-22 -21 -23 -26 -25 0
-18 -15 25 -6 5 0
2 1 5 -4 3 0
-21 -25 -23 -22 -24 0
22 -26 24 -25 23 0
-15 -13 11 12 -14 0
21 22 23 26 -24 0
-5 -3 4 2 -1 0
19 17 20 16 -18 0
25 23 -22 -24 26 0
-20 -16 -19 17 -18 0
12 -11 -14 -13 15 0
2 4 -5 3 1 0
20 17 -16 -19 18 0
-21 25 -26 22 -24 0
25 -21 26 24 -22 0
10 -15 2 -17 23 0
-21 23 -26 -24 -22 0
-6 7 9 -8 10 0
-8 6 10 -7 -9 0
24 -22 23 -21 -26 0
-21 23 -25 -24 -26 0
-26 -23 -21 25 22 0
5 -3 -2 4 1 0
17 20 18 19 16 0
12 13 -11 -14 15 0
-21 22 -24 23 -25 0
-4 25 -19 -14 -8 0
2 -5 -1 3 4 0
-25 -21 -23 24 22 0
26 -22 -25 -21 -24 0
-24 -26 -23 25 22 0
-20 17 -16 18 19 0
-9 -6 8 7 10 0
22 -24 23 -26 -21 0
-13 4 17 21 -9 0
15 -14 -12 11 13 0
-4 -5 3 2 1 0
-25 23 22 -24 -26 0
-11 15 -14 13 -12 0
-25 26 -22 24 -23 0
-5 -4 1 -3 -2 0
21 26 25 22 -23 0
23 22 -25 21 -26 0
-10 17 -24 2 13 0
-3 -2 1 4 -5 0
-2 3 4 -1 -5 0
24 -26 -21 -25 -23 0
-25 21 24 -26 22 0
-9 -2 -21 -17 -14 0
-8 15 16 1 -22 0
-10 -21 -13 -19 1 0
-6 10 8 -9 -7 0
-24 21 26 22 -23 0
-23 13 2 7 -18 0
-18 -17 19 -16 20 0
-15 14 -11 12 13 0
-21 -24 -26 -23 -25 0
25 21 -26 -22 24 0
26 -21 -23 -25 -24 0
-1 -5 -3 -2 4 0
24 -22 25 -21 -26 0
-25 23 26 21 22 0
15 -12 14 -13 -11 0
-13 -14 -15 11 -12 0
26 24 23 21 25 0
-23 -21 26 22 25 0
-10 6 -7 -8 -9 0
-5 -1 -2 3 -4 0
8 15 25 1 -18 0
2 4 -5 -3 1 0
-15 6 -2 24 20 0
-15 -13 11 14 12 0
14 -13 -15 -11 12 0
7 -10 -6 8 -9 0
21 23 26 24 22 0
11 12 15 -13 14 0
16 -20 -17 -18 19 0
-17 -19 16 -18 20 0
-23 22 -25 21 26 0
7 25 14 17 1 0
-23 -24 -25 26 21 0
